words_hard_train/5857.qaiger
aag 82 16 0 1 66
2
4
12
14
18
22
26
30
38
54
58
62
64
84
110
118
164
6 2 4
8 3 5
10 7 9
16 13 15
20 16 19
24 20 23
28 24 27
32 29 30
34 28 31
36 33 35
40 36 38
42 41 35
44 11 43
46 10 42
48 45 47
50 12 14
52 51 17
56 52 54
60 59 15
66 62 65
68 58 14
70 67 69
72 61 71
74 57 73
76 53 55
78 75 77
80 17 18
82 81 21
86 83 85
88 82 84
90 87 89
92 79 91
94 78 90
96 93 95
98 77 57
100 99 73
102 96 101
104 48 102
106 25 26
108 107 29
112 108 110
114 21 22
116 115 25
120 116 118
122 112 120
124 37 39
126 125 41
128 123 127
130 109 111
132 131 120
134 133 113
136 135 126
138 129 137
140 117 119
142 141 121
144 142 88
146 130 121
148 145 147
150 61 70
152 143 89
154 150 153
156 63 64
158 154 157
160 148 158
162 138 160
164 104 162
i0 2 y1[7]
i1 1 x2[7]
i2 1 x2[2]
i3 1 x2[1]
i4 1 x2[3]
i5 1 x2[4]
i6 1 x2[5]
i7 1 x2[6]
i8 2 y1[6]
i9 2 y1[2]
i10 2 y1[1]
i11 2 y1[0]
i12 1 x2[0]
i13 2 y1[3]
i14 2 y1[5]
i15 2 y1[4]
o0 bool[0]
c
simplified
  ==
    add
      2 y1
      subtract
        1
        1 x2
    unary minus
      1
