words_hard_train/5857.qaiger.qdimacs
p cnf 82 199
a 32 2 6 7 9 11 13 15 0
e 1 3 4 5 8 10 12 14 16 17 18 19 20 21 22 23 24 25 26 27 28 29 30 31 33 34 35 36 37 38 39 40 41 42 43 44 45 46 47 48 49 50 51 52 53 54 55 56 57 58 59 60 61 62 63 64 65 66 67 68 69 70 71 72 73 74 75 76 77 78 79 80 81 82 0
-1 -2 3 0
1 -3 0
2 -3 0
1 2 4 0
-1 -4 0
-2 -4 0
3 4 5 0
-3 -5 0
-4 -5 0
6 7 8 0
-6 -8 0
-7 -8 0
-8 9 10 0
8 -10 0
-9 -10 0
-10 11 12 0
10 -12 0
-11 -12 0
-12 13 14 0
12 -14 0
-13 -14 0
14 -15 16 0
-14 -16 0
15 -16 0
-14 15 17 0
14 -17 0
-15 -17 0
16 17 18 0
-16 -18 0
-17 -18 0
-18 -19 20 0
18 -20 0
19 -20 0
20 17 21 0
-20 -21 0
-17 -21 0
5 21 22 0
-5 -22 0
-21 -22 0
-5 -21 23 0
5 -23 0
21 -23 0
22 23 24 0
-22 -24 0
-23 -24 0
-6 -7 25 0
6 -25 0
7 -25 0
25 8 26 0
-25 -26 0
-8 -26 0
-26 -27 28 0
26 -28 0
27 -28 0
29 7 30 0
-29 -30 0
-7 -30 0
-31 32 33 0
31 -33 0
-32 -33 0
-29 -7 34 0
29 -34 0
7 -34 0
33 34 35 0
-33 -35 0
-34 -35 0
30 35 36 0
-30 -36 0
-35 -36 0
28 36 37 0
-28 -37 0
-36 -37 0
26 27 38 0
-26 -38 0
-27 -38 0
37 38 39 0
-37 -39 0
-38 -39 0
8 -9 40 0
-8 -40 0
9 -40 0
40 10 41 0
-40 -41 0
-10 -41 0
41 42 43 0
-41 -43 0
-42 -43 0
-41 -42 44 0
41 -44 0
42 -44 0
43 44 45 0
-43 -45 0
-44 -45 0
39 45 46 0
-39 -46 0
-45 -46 0
-39 -45 47 0
39 -47 0
45 -47 0
46 47 48 0
-46 -48 0
-47 -48 0
38 28 49 0
-38 -49 0
-28 -49 0
49 36 50 0
-49 -50 0
-36 -50 0
-48 50 51 0
48 -51 0
-50 -51 0
-24 -51 52 0
24 -52 0
51 -52 0
12 -13 53 0
-12 -53 0
13 -53 0
53 14 54 0
-53 -54 0
-14 -54 0
-54 -55 56 0
54 -56 0
55 -56 0
10 -11 57 0
-10 -57 0
11 -57 0
57 12 58 0
-57 -58 0
-12 -58 0
-58 -59 60 0
58 -60 0
59 -60 0
-56 -60 61 0
56 -61 0
60 -61 0
18 19 62 0
-18 -62 0
-19 -62 0
62 20 63 0
-62 -63 0
-20 -63 0
61 63 64 0
-61 -64 0
-63 -64 0
54 55 65 0
-54 -65 0
-55 -65 0
65 -60 66 0
-65 -66 0
60 -66 0
66 56 67 0
-66 -67 0
-56 -67 0
67 -63 68 0
-67 -68 0
63 -68 0
64 68 69 0
-64 -69 0
-68 -69 0
58 59 70 0
-58 -70 0
-59 -70 0
70 60 71 0
-70 -71 0
-60 -71 0
-71 -44 72 0
71 -72 0
44 -72 0
-65 60 73 0
65 -73 0
-60 -73 0
72 73 74 0
-72 -74 0
-73 -74 0
30 -35 75 0
-30 -75 0
35 -75 0
71 44 76 0
-71 -76 0
-44 -76 0
-75 76 77 0
75 -77 0
-76 -77 0
31 -32 78 0
-31 -78 0
32 -78 0
-77 78 79 0
77 -79 0
-78 -79 0
-74 -79 80 0
74 -80 0
79 -80 0
-69 -80 81 0
69 -81 0
80 -81 0
-52 -81 82 0
52 -82 0
81 -82 0
82 0
